
Gurobi 11.0.0 (win64, C++) logging started Tue Jul 29 15:31:26 2025

Set parameter TokenServer to value "141.76.38.119"
### START HEURISTIC APPROACH APPROACH ###
ProblemVariant: 1
### START PREPROCESSING ###
## Start start solution procedure ##
Start solution with 17 Vehicles and total costs 630.822 in 36.3401 s.
### END PREPROCESSING ###
Route 0 0-6-18-33-0 : weight util 0.470467 | volume util 0.509600 | infeasible with packing heuristic | feasible with CP model
Route 1 0-71-10-8-4-7-9-0 : weight util 0.346367 | volume util 0.672733 | infeasible with packing heuristic | feasible with CP model
Route 2 0-11-12-16-17-13-0 : weight util 0.741767 | volume util 0.540756 | infeasible with packing heuristic | feasible with CP model
Route 3 0-14-19-2-15-1-0 : weight util 0.311933 | volume util 0.625867 | infeasible with packing heuristic | feasible with CP model
Route 4 0-20-29-3-5-0 : weight util 0.065667 | volume util 0.515778 | infeasible with packing heuristic | feasible with CP model
Route 5 0-23-26-24-0 : weight util 0.214100 | volume util 0.633600 | infeasible with packing heuristic | feasible with CP model
Route 6 0-30-21-22-27-28-0 : weight util 0.235467 | volume util 0.599689 | infeasible with packing heuristic | feasible with CP model
Route 7 0-56-57-0 : weight util 0.313300 | volume util 0.509556 | infeasible with packing heuristic | feasible with CP model
Route 8 0-54-69-37-55-0 : weight util 0.045800 | volume util 0.596867 | infeasible with packing heuristic | feasible with CP model
Route 9 0-46-53-43-42-44-47-41-0 : weight util 0.187067 | volume util 0.739733 | infeasible with packing heuristic | feasible with CP model
Route 10 0-48-45-52-0 : weight util 0.053067 | volume util 0.638689 | infeasible with packing heuristic | feasible with CP model
Route 11 0-51-70-50-49-25-0 : weight util 0.202133 | volume util 0.566756 | infeasible with packing heuristic | feasible with CP model
Route 12 0-31-35-36-0 : weight util 0.140900 | volume util 0.560311 | infeasible with packing heuristic | feasible with CP model
Route 13 0-32-61-63-60-34-0 : weight util 0.143833 | volume util 0.610533 | infeasible with packing heuristic | feasible with CP model
Route 14 0-62-68-38-40-0 : weight util 0.214167 | volume util 0.698089 | infeasible with packing heuristic | feasible with CP model
Route 15 0-59-58-64-65-66-67-39-0 : weight util 0.141933 | volume util 0.678978 | infeasible with packing heuristic | feasible with CP model
